30805
15,137,399,423,473,542,767,888,1081,1242,1267,1501,1522,1649,1670,1676,1701,1817,1924,2003,2013,2019,2050,2179,2264,2296,2375,2417,2531,2706,2724,2810,2845,2868,2901,3031,3070,3121,3176,3268,3280,3319,3345,3489,3549,3575,3695,3704,3886,4066,4107,4136,4225,4283,4469,4523,4605,4719,4761,4814
